32	4
14	19	18	19
0	0	0	0	0	7	2	4	10	13	15	16	27
3	14	19	18	19	2	3	5
10	14	19	5	0	1	6
4	0	9	18	0	1	32
9	0	0	13	19	1	6
4	14	19	18	19	4	7	11	24	28
9	0	10	0	19	1	8
2	0	19	18	0	1	9
7	0	19	18	0	2	12	26
6	0	19	18	0	1	32
10	14	0	0	0	2	12	26
6	2	0	0	19	3	14	17	19
2	0	19	18	0	1	32
3	0	8	5	0	3	18	20	29
3	0	11	13	0	1	32
5	14	0	0	19	1	32
7	13	8	0	0	1	32
6	0	0	18	11	1	21
8	2	0	0	19	1	32
10	12	0	17	0	1	32
2	1	0	18	19	1	22
1	2	19	1	19	1	23
1	14	19	18	19	1	25
4	12	0	17	0	1	32
6	0	19	18	0	1	30
7	1	0	0	8	1	32
8	14	0	0	19	1	32
9	14	0	0	19	1	32
8	12	19	0	0	1	31
1	1	0	18	19	1	31
10	14	0	0	19	1	32
0	0	0	0	0	0
